p min 8 12
n 0 1
n 3 1
n 6 -1
c tw 6 7 9
n 9 -1
c tw 9 11 13
a 0 3 0 1 4
a 3 6 0 1 4
a 6 9 0 1 4
a 9 0 0 1 4
a 0 11 0 1 2
a 11 9 0 1 2
a 9 8 0 1 2
a 8 6 0 1 2
a 6 5 0 1 2
a 5 3 0 1 2
a 3 2 0 1 2
a 2 0 0 1 2